50
    1   168   227
    2    78    31
    3    58    93
    4   143   174
    5   450   415
    6   393   333
    7   207   256
    8   115   127
    9   342   352
   10   328   333
   11   610   551
   12   140   134
   13   511   535
   14   457   503
   15   263   248
   16   403   408
   17   159   120
   18   327   283
   19   208   180
   20   127   153
   21   224   216
   22   311   355
   23   280   295
   24   205   178
   25   418   416
   26   337   299
   27   147   197
   28   455   427
   29   304   297
   30   367   418
   31   512   541
   32   278   327
   33   136    95
   34   513   456
   35   194   151
   36    83    68
   37   578   551
   38   455   496
   39   444   439
   40     1    10
   41   363   394
   42   194   165
   43    24    81
   44   438   457
   45   169   186
   46   534   590
   47   479   421
   48   515   533
   49   481   482
   50   377   435
601
